
n_res = 8;
rcap = [50, 44, 41, 48, 1338, 1370, 1376, 1456];
rtype = [1, 1, 1, 1, 2, 2, 2, 2];
n_tasks = 100;
modes =  [{1, 2, 3}, {4, 5, 6}, {7, 8, 9}, {10, 11, 12}, {13, 14, 15}, {16, 17, 18}, {19, 20, 21}, {22, 23, 24}, {25, 26, 27}, {28, 29, 30}, {31, 32, 33}, {34, 35, 36}, {37, 38, 39}, {40, 41, 42}, {43, 44, 45}, {46, 47, 48}, {49, 50, 51}, {52, 53, 54}, {55, 56, 57}, {58, 59, 60}, {61, 62, 63}, {64, 65, 66}, {67, 68, 69}, {70, 71, 72}, {73, 74, 75}, {76, 77, 78}, {79, 80, 81}, {82, 83, 84}, {85, 86, 87}, {88, 89, 90}, {91, 92, 93}, {94, 95, 96}, {97, 98, 99}, {100, 101, 102}, {103, 104, 105}, {106, 107, 108}, {109, 110, 111}, {112, 113, 114}, {115, 116, 117}, {118, 119, 120}, {121, 122, 123}, {124, 125, 126}, {127, 128, 129}, {130, 131, 132}, {133, 134, 135}, {136, 137, 138}, {139, 140, 141}, {142, 143, 144}, {145, 146, 147}, {148, 149, 150}, {151, 152, 153}, {154, 155, 156}, {157, 158, 159}, {160, 161, 162}, {163, 164, 165}, {166, 167, 168}, {169, 170, 171}, {172, 173, 174}, {175, 176, 177}, {178, 179, 180}, {181, 182, 183}, {184, 185, 186}, {187, 188, 189}, {190, 191, 192}, {193, 194, 195}, {196, 197, 198}, {199, 200, 201}, {202, 203, 204}, {205, 206, 207}, {208, 209, 210}, {211, 212, 213}, {214, 215, 216}, {217, 218, 219}, {220, 221, 222}, {223, 224, 225}, {226, 227, 228}, {229, 230, 231}, {232, 233, 234}, {235, 236, 237}, {238, 239, 240}, {241, 242, 243}, {244, 245, 246}, {247, 248, 249}, {250, 251, 252}, {253, 254, 255}, {256, 257, 258}, {259, 260, 261}, {262, 263, 264}, {265, 266, 267}, {268, 269, 270}, {271, 272, 273}, {274, 275, 276}, {277, 278, 279}, {280, 281, 282}, {283, 284, 285}, {286, 287, 288}, {289, 290, 291}, {292, 293, 294}, {295, 296, 297}, {298, 299, 300}];
succ =  [{45, 44, 40, 37, 34, 33, 30, 29, 23, 21, 19, 16}, {52, 48, 44, 41, 40, 39, 38, 36, 35, 34, 33, 32, 28, 23, 22}, {30, 28, 5}, {63, 48, 44, 39, 38, 36, 32, 30, 28, 15}, {44, 42, 40, 33, 31, 24, 22, 19}, {53, 44, 43, 40, 38, 37, 36, 35, 31, 30, 29, 26}, {52, 48, 44, 35, 34, 32, 24, 22}, {67, 63, 62, 52, 45, 40, 39, 25, 21}, {66, 63, 56, 50, 49, 46, 43, 42, 41, 39, 31, 29, 27}, {68, 52, 50, 49, 48, 45, 39, 38, 28, 26}, {53, 52, 51, 50, 48, 46, 44, 30, 21}, {73, 66, 65, 57, 56, 55, 48, 43, 42, 40, 39, 35, 31}, {73, 66, 65, 62, 57, 53, 48, 46, 43, 42, 41, 34, 31}, {63, 56, 49, 45, 40, 39, 28, 23}, {71, 67, 65, 52, 50, 49, 45, 43, 42, 41, 23}, {67, 66, 63, 62, 61, 59, 55, 52, 51, 49, 48, 39, 38, 32}, {67, 66, 57, 56, 55, 54, 52, 49, 45, 39, 38, 29}, {73, 68, 66, 63, 56, 55, 54, 53, 49, 48, 47, 45, 38, 34}, {71, 67, 66, 64, 63, 61, 55, 51, 48, 43, 39, 32}, {71, 68, 67, 66, 64, 57, 56, 52, 50, 45, 28}, {71, 68, 66, 61, 57, 56, 49, 28}, {67, 64, 62, 58, 54, 50, 49, 46, 45}, {82, 77, 73, 70, 66, 64, 62, 61, 58, 57, 54, 51, 46}, {73, 68, 67, 66, 65, 63, 57, 55, 51, 47, 39}, {73, 65, 64, 59, 57, 56, 54, 51, 49, 48, 42}, {69, 67, 66, 65, 64, 59, 57, 56, 55, 51, 42}, {82, 73, 71, 69, 67, 61, 58, 55, 54, 52, 51, 47}, {73, 69, 65, 55, 43, 42}, {82, 76, 75, 74, 73, 68, 65, 64, 61, 59, 58, 51, 47}, {100, 98, 82, 81, 73, 70, 69, 67, 65, 64, 60, 59, 58, 57, 54}, {100, 82, 64, 59, 58, 54, 52, 45}, {82, 76, 74, 73, 68, 65, 58, 57, 56, 47}, {99, 82, 78, 77, 73, 70, 69, 62, 60, 59, 58, 56, 55}, {82, 77, 76, 75, 74, 71, 67, 64, 60, 58, 51, 50}, {99, 82, 76, 75, 74, 68, 67, 58, 50, 47}, {81, 78, 71, 69, 62, 59, 57, 49}, {96, 77, 76, 73, 65, 46}, {100, 99, 96, 95, 82, 81, 80, 77, 76, 75, 72, 71, 70, 69, 60}, {99, 80, 78, 77, 76, 75, 72, 70, 69, 60, 58, 53}, {100, 99, 96, 81, 78, 75, 71, 69, 60, 59, 58}, {98, 77, 74, 64, 61, 60, 59, 54}, {99, 95, 81, 76, 74, 58, 47}, {82, 81, 78, 74, 60, 59, 54}, {98, 96, 81, 75, 69, 67, 60, 59}, {78, 77, 75, 74, 61, 60, 51}, {99, 95, 69, 68, 60, 55}, {100, 98, 96, 80, 78, 77, 72, 70, 60}, {100, 98, 94, 91, 82, 80, 79, 78, 75, 74, 70}, {99, 96, 92, 88, 87, 82, 76, 75, 60}, {100, 97, 96, 94, 81, 79, 59}, {99, 96, 95, 94, 93, 92, 91, 90, 89, 80, 79, 72}, {98, 97, 96, 95, 88, 86, 81, 80, 76, 70}, {98, 97, 96, 95, 93, 90, 89, 88, 86, 81, 74}, {99, 97, 96, 92, 89, 88, 87, 86, 85, 80, 76}, {98, 94, 89, 86, 75, 74, 72}, {97, 96, 95, 92, 90, 88, 87, 84, 83, 81, 79}, {92, 80, 79, 75, 72}, {94, 93, 91, 90, 89, 88, 87, 85, 84, 83, 79}, {95, 93, 92, 90, 86, 80, 72}, {94, 93, 91, 90, 89, 85, 83, 79}, {95, 94, 89, 87, 86, 84, 83, 81}, {100, 94, 93, 92, 91, 87, 83, 79}, {100, 91, 89, 88, 87, 85, 83, 80}, {91, 89, 87, 85, 84, 83, 78}, {99, 97, 92, 91, 90, 86, 85, 83}, {96, 95, 94, 91, 89, 88, 84, 83}, {95, 94, 93, 90, 85, 83, 79}, {92, 91, 89, 86, 81, 80}, {97, 89, 86, 74}, {92, 89, 87, 85, 84, 83}, {98, 97, 92, 88, 84, 83}, {88, 87, 85, 84, 83}, {94, 90, 85, 84, 83}, {87, 85, 84, 83}, {93, 90, 84, 83}, {91, 84, 83}, {88, 84, 83}, {88, 86}, {86}, {84}, {85}, {85}, {}, {}, {}, {}, {}, {}, {}, {}, {}, {}, {}, {}, {}, {}, {}, {}, {}, {}];
n_opt = 300;
dur = [15, 19, 29, 8, 11, 27, 4, 6, 16, 12, 20, 30, 18, 19, 22, 4, 5, 21, 6, 7, 16, 12, 13, 26, 11, 22, 29, 2, 18, 23, 2, 11, 18, 7, 15, 26, 5, 6, 12, 1, 3, 4, 8, 16, 29, 6, 7, 20, 9, 16, 20, 9, 11, 24, 15, 22, 29, 7, 21, 29, 4, 7, 16, 2, 20, 22, 12, 13, 26, 5, 13, 22, 21, 25, 26, 25, 27, 30, 12, 13, 26, 10, 13, 17, 1, 17, 21, 2, 20, 21, 15, 17, 23, 2, 13, 21, 2, 13, 19, 10, 20, 24, 12, 19, 20, 2, 15, 28, 18, 23, 26, 12, 16, 28, 2, 10, 23, 6, 15, 16, 7, 8, 23, 1, 25, 28, 2, 7, 21, 8, 13, 16, 6, 22, 29, 22, 24, 30, 12, 21, 24, 13, 27, 28, 4, 29, 30, 22, 23, 25, 1, 27, 28, 3, 13, 30, 2, 10, 13, 13, 24, 29, 14, 17, 28, 9, 19, 28, 7, 10, 14, 7, 18, 30, 17, 20, 22, 10, 17, 24, 1, 12, 28, 8, 14, 27, 1, 10, 15, 8, 14, 17, 2, 3, 17, 1, 7, 21, 5, 6, 15, 3, 6, 24, 19, 21, 30, 5, 8, 25, 1, 15, 23, 4, 6, 27, 5, 27, 29, 12, 14, 30, 8, 28, 29, 4, 24, 27, 2, 15, 17, 10, 11, 18, 1, 8, 26, 8, 22, 30, 2, 3, 6, 20, 23, 24, 8, 14, 29, 8, 22, 28, 2, 10, 20, 17, 25, 29, 8, 16, 22, 4, 8, 21, 4, 8, 11, 9, 11, 13, 2, 10, 30, 15, 16, 18, 5, 16, 21, 3, 26, 29, 5, 12, 24, 1, 14, 15, 1, 18, 24, 11, 17, 29, 5, 14, 29, 4, 13, 26];
rreq = [|5, 3, 3, 2, 2, 2, 4, 4, 4, 5, 5, 5, 4, 2, 2, 4, 4, 4, 4, 3, 3, 3, 3, 3, 3, 3, 3, 4, 4, 4, 3, 2, 2, 4, 4, 4, 2, 2, 2, 5, 3, 3, 5, 3, 2, 1, 1, 1, 2, 2, 2, 4, 3, 1, 4, 3, 2, 5, 4, 3, 5, 3, 1, 3, 2, 2, 3, 3, 3, 4, 3, 3, 1, 1, 1, 5, 5, 5, 3, 3, 3, 2, 2, 2, 5, 4, 4, 3, 3, 2, 4, 4, 3, 1, 1, 1, 4, 4, 4, 3, 3, 3, 2, 2, 2, 3, 3, 3, 5, 4, 3, 4, 3, 3, 5, 3, 3, 5, 4, 4, 2, 2, 2, 4, 2, 1, 3, 3, 2, 3, 3, 2, 5, 5, 5, 3, 3, 3, 4, 4, 4, 5, 4, 4, 4, 3, 3, 5, 3, 1, 4, 4, 4, 2, 2, 2, 4, 3, 3, 5, 3, 3, 3, 3, 3, 4, 3, 3, 5, 3, 3, 4, 3, 2, 1, 1, 1, 5, 3, 3, 5, 5, 5, 1, 1, 1, 2, 2, 2, 4, 3, 3, 5, 3, 2, 5, 3, 3, 5, 3, 3, 3, 3, 3, 5, 4, 4, 4, 4, 3, 5, 3, 3, 1, 1, 1, 4, 3, 2, 3, 3, 3, 3, 1, 1, 5, 4, 3, 5, 3, 3, 4, 4, 4, 4, 3, 2, 3, 3, 2, 4, 2, 1, 4, 2, 2, 5, 3, 3, 4, 4, 4, 4, 4, 3, 3, 3, 2, 5, 3, 3, 2, 1, 1, 4, 3, 2, 5, 4, 4, 4, 3, 3, 4, 3, 3, 5, 2, 2, 4, 3, 3, 4, 3, 1, 3, 2, 1, 5, 5, 5, 4, 4, 4, 1, 1, 1, 3, 2, 1
 |3, 2, 2, 5, 5, 5, 3, 2, 2, 3, 2, 2, 2, 1, 1, 4, 2, 1, 5, 4, 3, 5, 4, 4, 4, 2, 2, 4, 3, 1, 4, 3, 2, 2, 2, 2, 2, 1, 1, 3, 2, 2, 4, 4, 3, 3, 3, 3, 3, 2, 2, 3, 2, 2, 2, 2, 2, 5, 2, 1, 5, 4, 2, 3, 3, 3, 4, 3, 1, 2, 2, 2, 4, 4, 3, 3, 3, 3, 3, 3, 3, 4, 3, 3, 5, 3, 2, 1, 1, 1, 4, 3, 3, 4, 4, 4, 4, 2, 2, 4, 2, 2, 5, 3, 3, 4, 2, 1, 5, 3, 3, 1, 1, 1, 2, 1, 1, 4, 4, 4, 1, 1, 1, 4, 4, 4, 4, 4, 4, 3, 1, 1, 3, 3, 3, 1, 1, 1, 4, 4, 3, 2, 1, 1, 3, 3, 3, 5, 4, 4, 2, 2, 1, 4, 3, 3, 4, 3, 2, 3, 2, 2, 2, 2, 2, 4, 4, 3, 3, 2, 2, 1, 1, 1, 3, 3, 2, 3, 1, 1, 4, 3, 1, 3, 3, 3, 1, 1, 1, 4, 4, 4, 5, 3, 2, 3, 3, 1, 2, 2, 1, 2, 2, 2, 4, 3, 1, 1, 1, 1, 5, 3, 2, 1, 1, 1, 5, 4, 3, 4, 2, 1, 4, 4, 4, 1, 1, 1, 2, 2, 2, 5, 4, 4, 5, 5, 5, 4, 4, 4, 3, 1, 1, 2, 1, 1, 1, 1, 1, 2, 1, 1, 2, 1, 1, 3, 3, 3, 4, 4, 3, 4, 4, 3, 2, 1, 1, 4, 4, 2, 5, 3, 2, 4, 2, 2, 4, 3, 2, 1, 1, 1, 5, 4, 3, 4, 2, 2, 4, 3, 2, 5, 3, 1, 1, 1, 1, 5, 4, 4
 |2, 1, 1, 2, 2, 1, 2, 2, 2, 3, 2, 2, 2, 2, 2, 4, 3, 2, 5, 3, 3, 4, 3, 3, 3, 3, 3, 3, 3, 2, 3, 2, 1, 4, 3, 3, 5, 4, 4, 5, 4, 4, 1, 1, 1, 5, 5, 5, 2, 1, 1, 4, 3, 2, 2, 1, 1, 3, 2, 1, 3, 2, 1, 2, 1, 1, 4, 4, 4, 3, 3, 3, 2, 1, 1, 4, 2, 2, 4, 4, 4, 4, 4, 4, 3, 2, 2, 2, 1, 1, 4, 3, 3, 1, 1, 1, 4, 3, 2, 2, 1, 1, 4, 3, 3, 5, 4, 4, 5, 3, 3, 2, 1, 1, 3, 3, 2, 4, 2, 2, 3, 3, 2, 5, 2, 2, 4, 4, 4, 3, 2, 2, 1, 1, 1, 5, 3, 2, 2, 1, 1, 2, 1, 1, 3, 2, 2, 5, 4, 4, 3, 3, 2, 1, 1, 1, 2, 1, 1, 1, 1, 1, 4, 2, 1, 5, 4, 4, 4, 3, 2, 3, 3, 2, 3, 3, 3, 2, 2, 2, 5, 3, 3, 2, 2, 2, 4, 4, 3, 4, 2, 2, 1, 1, 1, 5, 4, 3, 4, 3, 3, 5, 4, 3, 5, 4, 3, 3, 1, 1, 2, 1, 1, 1, 1, 1, 3, 2, 1, 4, 4, 3, 2, 1, 1, 3, 3, 3, 5, 4, 4, 2, 1, 1, 3, 3, 3, 4, 2, 2, 3, 2, 2, 4, 3, 3, 1, 1, 1, 3, 3, 1, 2, 2, 2, 4, 4, 4, 5, 4, 3, 4, 3, 3, 3, 3, 2, 4, 4, 4, 4, 2, 2, 4, 2, 2, 2, 1, 1, 5, 3, 3, 5, 4, 3, 4, 3, 3, 4, 4, 3, 5, 4, 2, 3, 3, 3, 4, 3, 2
 |2, 2, 1, 4, 2, 1, 5, 2, 1, 4, 2, 2, 3, 3, 3, 4, 4, 4, 4, 2, 2, 1, 1, 1, 3, 2, 1, 2, 1, 1, 4, 3, 1, 3, 2, 2, 5, 3, 3, 4, 2, 2, 2, 1, 1, 4, 3, 3, 4, 3, 1, 4, 2, 2, 3, 3, 3, 3, 3, 2, 4, 4, 4, 4, 3, 3, 2, 2, 1, 4, 4, 4, 4, 4, 4, 5, 4, 4, 1, 1, 1, 4, 4, 3, 3, 2, 2, 4, 3, 3, 4, 2, 2, 3, 3, 1, 5, 3, 3, 5, 4, 3, 3, 3, 2, 2, 1, 1, 4, 4, 4, 5, 4, 3, 2, 2, 2, 4, 4, 3, 4, 4, 4, 4, 4, 4, 3, 2, 1, 5, 5, 5, 2, 2, 2, 4, 4, 4, 1, 1, 1, 4, 2, 2, 3, 2, 2, 5, 3, 3, 1, 1, 1, 5, 5, 5, 4, 3, 2, 4, 3, 1, 5, 4, 3, 4, 4, 4, 4, 4, 4, 5, 5, 5, 2, 2, 2, 2, 2, 1, 2, 2, 2, 2, 1, 1, 3, 2, 1, 2, 1, 1, 4, 3, 3, 3, 3, 1, 4, 3, 3, 3, 2, 2, 4, 2, 2, 4, 4, 4, 3, 3, 2, 2, 2, 1, 4, 4, 4, 3, 3, 3, 3, 1, 1, 4, 2, 2, 2, 2, 2, 3, 2, 1, 3, 1, 1, 3, 3, 2, 2, 2, 2, 5, 4, 3, 4, 4, 3, 4, 3, 3, 2, 1, 1, 3, 3, 3, 1, 1, 1, 4, 4, 4, 5, 4, 3, 5, 4, 4, 5, 5, 5, 4, 2, 2, 3, 2, 2, 5, 4, 4, 4, 2, 2, 3, 3, 3, 3, 2, 2, 5, 4, 3, 4, 3, 2, 3, 1, 1
 |24, 17, 13, 30, 15, 7, 18, 15, 11, 12, 11, 1, 21, 20, 20, 15, 10, 8, 28, 28, 28, 19, 11, 7, 12, 9, 5, 22, 19, 13, 13, 10, 6, 16, 14, 12, 15, 9, 6, 20, 16, 7, 21, 17, 16, 22, 20, 10, 28, 25, 24, 10, 7, 7, 16, 13, 11, 22, 17, 11, 16, 9, 7, 17, 10, 8, 6, 5, 5, 22, 20, 18, 29, 16, 8, 16, 16, 16, 20, 13, 8, 24, 11, 8, 25, 18, 15, 26, 22, 17, 26, 24, 23, 14, 11, 8, 20, 10, 10, 13, 12, 10, 20, 13, 3, 21, 19, 14, 7, 7, 6, 13, 10, 7, 27, 18, 13, 25, 25, 24, 18, 14, 8, 29, 24, 21, 11, 11, 8, 25, 20, 9, 28, 23, 21, 23, 22, 19, 21, 21, 21, 22, 22, 19, 21, 12, 10, 18, 17, 17, 15, 11, 4, 6, 3, 2, 23, 22, 21, 9, 7, 5, 7, 7, 7, 20, 18, 10, 14, 9, 8, 9, 5, 4, 21, 19, 18, 16, 15, 14, 15, 15, 15, 7, 6, 1, 28, 23, 15, 3, 3, 3, 22, 16, 10, 23, 21, 18, 22, 20, 16, 27, 19, 13, 3, 3, 3, 19, 13, 13, 15, 10, 8, 12, 10, 10, 6, 5, 3, 19, 15, 13, 13, 13, 12, 9, 9, 9, 22, 17, 12, 13, 12, 11, 21, 19, 19, 14, 11, 10, 29, 18, 13, 20, 18, 15, 24, 13, 13, 21, 17, 12, 24, 22, 20, 26, 26, 24, 25, 20, 17, 30, 24, 24, 5, 4, 1, 21, 14, 9, 15, 14, 14, 15, 15, 12, 23, 16, 13, 15, 12, 11, 26, 24, 17, 25, 13, 6, 12, 10, 6, 18, 15, 14, 12, 9, 6, 24, 16, 10
 |26, 20, 13, 27, 24, 18, 20, 15, 14, 23, 22, 20, 12, 12, 12, 23, 16, 10, 14, 11, 9, 27, 25, 25, 13, 11, 7, 25, 25, 24, 26, 25, 25, 25, 15, 3, 17, 17, 15, 25, 19, 17, 18, 14, 9, 3, 3, 3, 23, 21, 21, 27, 22, 19, 18, 16, 6, 21, 21, 17, 15, 11, 5, 6, 5, 5, 19, 12, 6, 23, 16, 6, 15, 15, 15, 22, 21, 5, 5, 5, 4, 30, 26, 25, 22, 13, 8, 8, 5, 1, 19, 13, 7, 19, 19, 18, 18, 13, 5, 8, 6, 6, 28, 13, 8, 23, 15, 9, 22, 21, 17, 19, 11, 8, 23, 13, 6, 25, 14, 11, 24, 22, 21, 25, 18, 12, 18, 12, 10, 12, 8, 8, 4, 4, 4, 27, 16, 11, 20, 17, 17, 17, 15, 15, 14, 10, 4, 27, 26, 25, 18, 16, 11, 22, 15, 8, 23, 18, 13, 15, 9, 9, 23, 17, 12, 18, 17, 16, 15, 10, 8, 8, 7, 5, 18, 15, 10, 1, 1, 1, 25, 22, 13, 19, 13, 9, 20, 19, 18, 11, 9, 6, 6, 5, 4, 24, 23, 20, 28, 23, 20, 24, 15, 4, 23, 16, 15, 14, 9, 9, 14, 9, 5, 22, 22, 19, 24, 24, 22, 21, 21, 21, 28, 18, 13, 20, 19, 16, 10, 5, 5, 28, 22, 22, 25, 23, 17, 24, 20, 19, 24, 18, 10, 12, 12, 11, 23, 21, 11, 22, 18, 11, 17, 11, 7, 18, 16, 10, 7, 6, 6, 13, 12, 11, 25, 24, 18, 28, 21, 14, 18, 13, 7, 28, 27, 26, 19, 16, 11, 15, 12, 11, 25, 17, 12, 22, 16, 14, 17, 11, 2, 28, 21, 9, 22, 20, 20, 6, 5, 4
 |10, 7, 7, 22, 20, 18, 22, 15, 10, 16, 14, 13, 21, 19, 19, 29, 27, 23, 11, 8, 6, 13, 12, 12, 8, 6, 6, 12, 10, 7, 21, 15, 10, 23, 16, 11, 27, 24, 22, 14, 12, 7, 18, 14, 13, 20, 11, 9, 24, 22, 21, 28, 17, 14, 14, 8, 3, 25, 13, 7, 14, 11, 6, 19, 10, 6, 24, 23, 15, 21, 18, 17, 20, 17, 15, 23, 19, 12, 18, 16, 6, 19, 12, 7, 24, 23, 23, 27, 22, 20, 11, 8, 8, 30, 25, 22, 19, 13, 7, 21, 16, 10, 20, 18, 13, 21, 15, 11, 22, 15, 9, 6, 4, 2, 30, 23, 22, 26, 26, 26, 21, 19, 18, 23, 18, 12, 27, 22, 19, 19, 16, 10, 12, 8, 3, 16, 9, 4, 28, 16, 13, 26, 15, 7, 29, 27, 26, 29, 23, 22, 17, 15, 14, 21, 21, 19, 19, 15, 10, 27, 18, 14, 15, 9, 3, 15, 11, 8, 14, 11, 6, 13, 11, 11, 20, 20, 20, 9, 9, 9, 7, 6, 6, 11, 9, 4, 13, 11, 9, 14, 10, 7, 26, 25, 24, 25, 13, 8, 9, 9, 7, 16, 15, 3, 17, 13, 11, 12, 9, 7, 12, 12, 11, 19, 19, 18, 22, 16, 12, 15, 14, 11, 21, 21, 21, 11, 10, 6, 24, 17, 2, 21, 20, 14, 18, 18, 17, 10, 10, 8, 18, 13, 4, 17, 10, 8, 14, 13, 13, 22, 18, 16, 20, 15, 15, 16, 14, 13, 21, 19, 10, 27, 26, 26, 19, 19, 14, 25, 14, 12, 21, 13, 9, 23, 21, 16, 21, 18, 16, 1, 1, 1, 17, 13, 9, 21, 21, 20, 17, 13, 11, 20, 16, 15, 19, 19, 11, 18, 16, 16
 |3, 3, 2, 29, 21, 18, 17, 15, 15, 22, 19, 9, 24, 19, 17, 12, 10, 10, 13, 10, 8, 23, 18, 15, 28, 28, 28, 14, 10, 9, 20, 16, 5, 19, 16, 15, 11, 8, 8, 28, 26, 22, 26, 16, 9, 23, 15, 8, 15, 15, 15, 20, 11, 6, 18, 9, 5, 22, 21, 21, 9, 6, 5, 27, 16, 4, 26, 17, 2, 25, 22, 20, 27, 21, 19, 22, 19, 14, 21, 21, 14, 30, 28, 25, 14, 8, 6, 19, 17, 14, 26, 20, 5, 21, 20, 14, 18, 11, 9, 20, 16, 15, 16, 15, 13, 27, 20, 12, 18, 13, 9, 13, 13, 12, 18, 15, 12, 24, 22, 18, 27, 26, 26, 14, 12, 10, 23, 16, 10, 27, 26, 20, 13, 9, 6, 21, 10, 5, 15, 12, 6, 28, 27, 27, 21, 11, 10, 15, 12, 9, 13, 8, 3, 15, 12, 9, 11, 10, 8, 18, 18, 15, 18, 14, 7, 30, 28, 28, 7, 5, 4, 17, 15, 15, 19, 19, 18, 26, 17, 12, 20, 19, 18, 23, 18, 17, 21, 12, 5, 17, 13, 12, 29, 28, 28, 18, 13, 9, 15, 15, 13, 17, 15, 11, 21, 12, 8, 20, 19, 14, 25, 21, 21, 28, 28, 28, 27, 13, 11, 18, 9, 3, 16, 11, 9, 28, 26, 24, 23, 19, 17, 4, 3, 3, 24, 21, 11, 29, 24, 24, 19, 19, 17, 21, 18, 18, 22, 20, 13, 19, 15, 7, 27, 25, 22, 19, 15, 4, 28, 28, 28, 27, 15, 11, 21, 14, 11, 15, 11, 6, 6, 4, 3, 25, 16, 12, 27, 26, 25, 24, 21, 17, 25, 21, 16, 11, 6, 5, 20, 8, 2, 22, 21, 19, 12, 11, 11, 13, 7, 3|];